<number of tasks>
58

<cycle time>
54

<task times>
1 10
2 53
3 41
4 36
5 35
6 17
7 34
8 23
9 14
10 52
11 33
12 34
13 12
14 52
15 12
16 33
17 44
18 7
19 15
20 13
21 29
22 37
23 43
24 23
25 24
26 9
27 16
28 12
29 26
30 22
31 51
32 47
33 34
34 23
35 12
36 52
37 12
38 33
39 44
40 7
41 15
42 13
43 29
44 37
45 43
46 23
47 24
48 9
49 16
50 12
51 26
52 12
53 52
54 12
55 33
56 44
57 7
58 15

<precedence relations>
1,9
2,25
3,21
3,22
4,10
5,36
6,23
6,24
7,43
8,44
9,11
11,13
11,14
11,15
12,17
13,17
14,17
15,17
16,18
17,20
18,19
19,23
20,21
20,25
21,26
21,44
22,27
23,31
24,31
25,38
26,29
27,30
28,32
28,33
29,31
30,34
31,36
32,45
33,35
34,36
35,43
36,37
36,38
37,39
37,40
37,41
38,52
39,43
40,43
41,42
42,43
43,45
44,45
45,46
45,48
45,49
46,47
46,50
47,51
48,55
49,58
50,58
51,52
52,53
53,54
54,55
54,56
55,57
56,57
57,58

<setup times forward>
1,2:6
1,3:3
1,4:6
1,5:4
1,6:5
1,7:1
1,8:12
1,9:6
1,10:5
1,12:5
1,16:2
1,18:2
1,19:1
1,22:11
1,24:11
1,27:11
1,28:2
1,30:11
1,32:2
1,33:4
1,34:6
1,35:3
2,1:6
2,3:3
2,4:12
2,5:2
2,6:11
2,7:5
2,8:18
2,9:12
2,10:11
2,11:15
2,12:11
2,13:3
2,14:9
2,15:15
2,16:8
2,17:6
2,18:8
2,19:5
2,20:2
2,21:18
2,22:17
2,23:6
2,24:17
2,25:11
2,26:17
2,27:17
2,28:8
2,30:17
2,31:10
2,32:8
2,33:2
2,35:3
2,36:6
2,37:2
2,39:15
2,40:15
2,41:3
2,42:3
2,43:3
2,44:3
2,45:10
2,46:11
2,47:16
2,48:17
2,49:2
2,50:2
2,51:16
3,1:3
3,2:3
3,4:9
3,5:1
3,6:8
3,7:2
3,8:15
3,9:9
3,10:8
3,11:12
3,12:8
3,14:6
3,15:12
3,16:5
3,17:3
3,18:5
3,19:2
3,20:1
3,21:15
3,22:14
3,23:3
3,24:14
3,25:8
3,28:5
3,32:5
3,33:1
4,1:6
4,2:12
4,3:9
4,5:10
4,6:1
4,7:7
4,8:6
4,10:1
4,11:3
4,12:1
4,13:9
4,14:3
4,15:3
4,16:4
4,17:6
4,18:4
4,19:7
4,20:10
4,21:6
4,22:5
4,23:6
4,24:5
4,25:1
4,26:5
4,27:5
4,28:4
4,29:12
4,30:5
4,31:2
4,32:4
4,33:10
4,34:12
4,35:9
4,36:6
4,37:10
4,38:7
4,39:3
4,40:3
4,41:9
4,42:9
4,43:9
4,44:9
4,45:2
4,46:1
4,47:4
4,48:5
4,49:10
4,50:10
4,51:4
4,52:7
4,53:6
4,54:5
4,55:5
4,56:4
4,57:10
4,58:10
5,1:4
5,2:2
5,3:1
5,4:10
5,6:9
5,7:3
5,8:16
5,9:10
5,10:9
5,11:13
5,12:9
5,13:1
5,14:7
5,15:13
5,16:6
5,17:4
5,18:6
5,19:3
5,21:16
5,22:15
5,23:4
5,24:15
5,25:9
5,26:15
5,27:15
5,28:6
5,29:2
5,30:15
5,31:8
5,32:6
5,34:2
5,35:1
5,36:4
5,44:1
6,1:5
6,2:11
6,3:8
6,4:1
6,5:9
6,7:6
6,8:7
6,9:1
6,11:4
6,13:8
6,14:2
6,15:4
6,16:3
6,17:5
6,18:3
6,19:6
6,20:9
6,21:7
6,22:6
6,23:5
6,24:6
6,26:6
6,27:6
6,28:3
6,29:11
6,30:6
6,32:3
6,33:9
6,34:11
6,35:8
6,44:8
7,1:1
7,2:5
7,3:2
7,4:7
7,5:3
7,6:6
7,8:13
7,9:7
7,10:6
7,11:10
7,12:6
7,13:2
7,14:4
7,15:10
7,16:3
7,17:1
7,18:3
7,20:3
7,21:13
7,22:12
7,23:1
7,24:12
7,25:6
7,26:12
7,27:12
7,28:3
7,29:5
7,30:12
7,31:5
7,32:3
7,33:3
7,34:5
7,35:2
7,36:1
7,37:3
7,38:14
7,39:10
7,40:10
7,41:2
7,42:2
7,43:2
7,44:2
8,1:12
8,2:18
8,3:15
8,4:6
8,5:16
8,6:7
8,7:13
8,9:6
8,10:7
8,11:3
8,12:7
8,13:15
8,14:9
8,15:3
8,16:10
8,17:12
8,18:10
8,19:13
8,20:16
8,22:1
8,23:12
8,24:1
8,25:7
8,26:1
8,27:1
8,28:10
8,29:18
8,30:1
8,31:8
8,32:10
8,33:16
8,34:18
8,35:15
8,36:12
8,37:16
8,38:1
8,39:3
8,40:3
8,41:15
8,42:15
8,43:15
8,44:15
9,2:12
9,3:9
9,5:10
9,6:1
9,7:7
9,8:6
9,10:1
9,11:3
9,12:1
9,16:4
9,18:4
9,19:7
9,22:5
9,23:6
9,24:5
9,27:5
9,28:4
9,30:5
9,32:4
9,33:10
9,34:12
9,35:9
10,1:5
10,2:11
10,3:8
10,5:9
10,7:6
10,8:7
10,9:1
10,11:4
10,13:8
10,14:2
10,15:4
10,16:3
10,17:5
10,18:3
10,19:6
10,20:9
10,21:7
10,22:6
10,23:5
10,24:6
10,26:6
10,27:6
10,28:3
10,29:11
10,30:6
10,31:1
10,32:3
10,33:9
10,34:11
10,35:8
10,36:5
10,37:9
10,38:8
10,39:4
10,40:4
10,41:8
10,42:8
10,43:8
10,44:8
10,45:1
10,47:5
10,48:6
10,49:9
10,50:9
10,51:5
10,52:8
10,53:5
10,54:6
10,55:6
10,56:3
10,57:9
10,58:9
11,2:15
11,3:12
11,4:3
11,5:13
11,6:4
11,7:10
11,8:3
11,10:4
11,12:4
11,13:12
11,14:6
11,16:7
11,18:7
11,19:10
11,22:2
11,23:9
11,24:2
11,27:2
11,28:7
11,30:2
11,32:7
11,33:13
11,34:15
11,35:12
12,1:5
12,2:11
12,3:8
12,4:1
12,5:9
12,7:6
12,8:7
12,9:1
12,11:4
12,13:8
12,14:2
12,15:4
12,16:3
12,17:5
12,18:3
12,19:6
12,22:6
12,23:5
12,24:6
12,27:6
12,28:3
12,30:6
12,32:3
12,33:9
12,34:11
12,35:8
13,2:3
13,4:9
13,5:1
13,6:8
13,7:2
13,8:15
13,10:8
13,12:8
13,14:6
13,15:12
13,16:5
13,17:3
13,18:5
13,19:2
13,22:14
13,23:3
13,24:14
13,27:14
13,28:5
13,30:14
13,32:5
13,33:1
13,34:3
14,2:9
14,3:6
14,4:3
14,5:7
14,6:2
14,7:4
14,8:9
14,10:2
14,12:2
14,13:6
14,15:6
14,16:1
14,17:3
14,18:1
14,19:4
14,22:8
14,23:3
14,24:8
14,27:8
14,28:1
14,30:8
14,32:1
14,33:7
14,34:9
14,35:6
15,2:15
15,3:12
15,4:3
15,5:13
15,6:4
15,7:10
15,8:3
15,10:4
15,12:4
15,13:12
15,14:6
15,16:7
15,17:9
15,18:7
15,19:10
15,22:2
15,23:9
15,24:2
15,27:2
15,28:7
15,30:2
15,32:7
15,33:13
15,34:15
15,35:12
16,1:2
16,2:8
16,3:5
16,4:4
16,5:6
16,6:3
16,7:3
16,8:10
16,9:4
16,10:3
16,11:7
16,12:3
16,13:5
16,14:1
16,15:7
16,17:2
16,20:6
16,21:10
16,22:9
16,24:9
16,25:3
16,26:9
16,27:9
16,29:8
16,30:9
16,33:6
16,34:8
16,35:5
16,44:5
17,2:6
17,3:3
17,4:6
17,5:4
17,6:5
17,7:1
17,8:12
17,10:5
17,16:2
17,18:2
17,19:1
17,20:4
17,22:11
17,24:11
17,27:11
17,28:2
17,30:11
17,32:2
17,33:4
17,34:6
17,35:3
18,1:2
18,2:8
18,3:5
18,4:4
18,5:6
18,6:3
18,7:3
18,8:10
18,9:4
18,10:3
18,11:7
18,12:3
18,13:5
18,14:1
18,15:7
18,17:2
18,19:3
18,20:6
18,21:10
18,22:9
18,24:9
18,25:3
18,26:9
18,27:9
18,29:8
18,30:9
18,33:6
18,34:8
18,35:5
18,44:5
19,1:1
19,2:5
19,3:2
19,4:7
19,5:3
19,6:6
19,8:13
19,9:7
19,10:6
19,11:10
19,12:6
19,13:2
19,14:4
19,15:10
19,17:1
19,20:3
19,21:13
19,22:12
19,23:1
19,24:12
19,25:6
19,26:12
19,27:12
19,28:3
19,29:5
19,30:12
19,32:3
19,33:3
19,34:5
19,35:2
19,44:2
20,2:2
20,3:1
20,4:10
20,6:9
20,7:3
20,8:16
20,10:9
20,16:6
20,18:6
20,19:3
20,21:16
20,22:15
20,23:4
20,24:15
20,25:9
20,27:15
20,28:6
20,30:15
20,32:6
20,34:2
20,35:1
21,2:18
21,4:6
21,5:16
21,6:7
21,7:13
21,10:7
21,16:10
21,18:10
21,19:13
21,22:1
21,23:12
21,24:1
21,25:7
21,26:1
21,27:1
21,28:10
21,30:1
21,32:10
21,33:16
21,34:18
21,35:15
21,44:15
22,1:11
22,2:17
22,4:5
22,5:15
22,6:6
22,7:12
22,8:1
22,9:5
22,10:6
22,11:2
22,12:6
22,13:14
22,14:8
22,15:2
22,16:9
22,17:11
22,18:9
22,19:12
22,20:15
22,21:1
22,23:11
22,25:6
22,28:9
22,29:17
22,31:7
22,32:9
22,33:15
22,35:14
22,44:14
23,2:6
23,3:3
23,4:6
23,5:4
23,7:1
23,8:12
23,9:6
23,10:5
23,11:9
23,12:5
23,13:3
23,14:3
23,15:9
23,20:4
23,21:12
23,22:11
23,24:11
23,25:5
23,26:11
23,27:11
23,28:2
23,29:6
23,30:11
23,31:4
23,32:2
23,33:4
23,34:6
23,35:3
23,44:3
24,1:11
24,2:17
24,3:14
24,4:5
24,5:15
24,7:12
24,8:1
24,9:5
24,10:6
24,11:2
24,12:6
24,13:14
24,14:8
24,15:2
24,16:9
24,17:11
24,18:9
24,19:12
24,20:15
24,21:1
24,23:11
24,25:6
24,28:9
24,29:17
24,31:7
24,32:9
24,33:15
24,34:17
24,35:14
24,44:14
25,3:8
25,4:1
25,5:9
25,7:6
25,8:7
25,16:3
25,18:3
25,19:6
25,21:7
25,22:6
25,23:5
25,24:6
25,26:6
25,27:6
25,28:3
25,29:11
25,30:6
25,31:1
25,32:3
25,33:9
25,34:11
25,35:8
25,36:5
25,37:9
25,38:8
25,39:4
25,40:4
25,41:8
25,42:8
25,43:8
25,44:8
25,45:1
25,47:5
25,48:6
25,49:9
25,50:9
25,51:5
26,2:17
26,4:5
26,5:15
26,6:6
26,7:12
26,8:1
26,10:6
26,16:9
26,18:9
26,19:12
26,23:11
26,25:6
26,28:9
26,29:17
26,32:9
26,33:15
26,34:17
26,35:14
26,44:14
27,1:11
27,2:17
27,4:5
27,5:15
27,6:6
27,7:12
27,8:1
27,9:5
27,10:6
27,11:2
27,12:6
27,13:14
27,14:8
27,15:2
27,16:9
27,17:11
27,18:9
27,19:12
27,20:15
27,21:1
27,23:11
27,25:6
27,28:9
27,29:17
27,31:7
27,32:9
27,33:15
27,35:14
27,44:14
28,1:2
28,2:8
28,3:5
28,4:4
28,5:6
28,6:3
28,7:3
28,8:10
28,9:4
28,10:3
28,11:7
28,12:3
28,13:5
28,14:1
28,15:7
28,17:2
28,19:3
28,20:6
28,21:10
28,22:9
28,23:2
28,24:9
28,25:3
28,26:9
28,27:9
28,29:8
28,30:9
28,31:2
28,33:6
28,34:8
28,36:2
28,37:6
28,38:11
28,39:7
28,40:7
28,41:5
28,42:5
28,44:5
29,4:12
29,5:2
29,6:11
29,7:5
29,8:18
29,10:11
29,16:8
29,18:8
29,19:5
29,22:17
29,23:6
29,24:17
29,25:11
29,27:17
29,28:8
29,30:17
29,31:10
29,32:8
29,33:2
29,35:3
29,44:3
30,1:11
30,2:17
30,4:5
30,5:15
30,6:6
30,7:12
30,8:1
30,9:5
30,10:6
30,11:2
30,12:6
30,13:14
30,14:8
30,15:2
30,16:9
30,17:11
30,18:9
30,19:12
30,20:15
30,21:1
30,23:11
30,25:6
30,28:9
30,29:17
30,31:7
30,32:9
30,33:15
30,34:17
30,35:14
30,44:14
31,2:10
31,4:2
31,5:8
31,7:5
31,8:8
31,10:1
31,22:7
31,25:1
31,27:7
31,28:2
31,30:7
31,32:2
31,33:8
31,34:10
31,35:7
31,36:4
31,44:7
32,1:2
32,2:8
32,3:5
32,4:4
32,5:6
32,6:3
32,7:3
32,8:10
32,9:4
32,10:3
32,11:7
32,12:3
32,13:5
32,14:1
32,15:7
32,17:2
32,19:3
32,20:6
32,21:10
32,22:9
32,23:2
32,24:9
32,25:3
32,26:9
32,27:9
32,29:8
32,30:9
32,31:2
32,33:6
32,34:8
32,35:5
32,36:2
32,37:6
32,38:11
32,39:7
32,40:7
32,41:5
32,42:5
32,43:5
32,44:5
32,45:2
33,1:4
33,2:2
33,3:1
33,4:10
33,6:9
33,7:3
33,8:16
33,9:10
33,10:9
33,11:13
33,12:9
33,13:1
33,14:7
33,15:13
33,16:6
33,17:4
33,18:6
33,19:3
33,21:16
33,22:15
33,23:4
33,24:15
33,25:9
33,26:15
33,27:15
33,29:2
33,30:15
33,31:8
33,32:6
33,34:2
33,35:1
33,36:4
33,38:17
33,39:13
33,40:13
33,41:1
33,42:1
33,44:1
34,1:6
34,4:12
34,5:2
34,6:11
34,7:5
34,8:18
34,9:12
34,10:11
34,11:15
34,12:11
34,13:3
34,14:9
34,15:15
34,16:8
34,17:6
34,18:8
34,19:5
34,20:2
34,21:18
34,23:6
34,24:17
34,25:11
34,26:17
34,28:8
34,31:10
34,32:8
34,33:2
34,35:3
34,36:6
34,44:3
35,1:3
35,2:3
35,4:9
35,5:1
35,6:8
35,7:2
35,8:15
35,9:9
35,10:8
35,11:12
35,12:8
35,14:6
35,15:12
35,16:5
35,17:3
35,18:5
35,19:2
35,20:1
35,21:15
35,22:14
35,23:3
35,24:14
35,25:8
35,26:14
35,27:14
35,29:3
35,30:14
35,31:7
35,32:5
35,34:3
35,36:3
35,37:1
35,38:16
35,39:12
35,40:12
36,2:6
36,4:6
36,7:1
36,8:12
36,10:5
36,25:5
36,28:2
36,32:2
36,33:4
36,35:3
36,37:4
36,38:13
36,44:3
37,2:2
37,4:10
37,7:3
37,8:16
37,10:9
37,25:9
37,28:6
37,32:6
37,35:1
37,38:17
37,39:13
37,40:13
37,41:1
37,44:1
38,4:7
38,7:14
38,8:1
38,10:8
38,28:11
38,32:11
38,33:17
38,35:16
38,37:17
38,39:4
38,40:4
38,41:16
38,42:16
38,43:16
38,44:16
38,45:9
38,46:8
38,47:3
38,48:2
38,49:17
38,50:17
38,51:3
39,2:15
39,4:3
39,7:10
39,8:3
39,10:4
39,25:4
39,28:7
39,32:7
39,33:13
39,35:12
39,38:4
39,41:12
39,42:12
39,43:12
39,44:12
40,2:15
40,4:3
40,7:10
40,8:3
40,10:4
40,25:4
40,28:7
40,32:7
40,33:13
40,35:12
40,38:4
40,41:12
40,42:12
40,43:12
40,44:12
41,2:3
41,4:9
41,7:2
41,8:15
41,10:8
41,25:8
41,28:5
41,32:5
41,33:1
41,38:16
41,39:12
41,40:12
42,2:3
42,4:9
42,7:2
42,8:15
42,10:8
42,25:8
42,28:5
42,32:5
42,33:1
42,38:16
42,39:12
42,40:12
43,2:3
43,4:9
43,8:15
43,10:8
43,25:8
43,32:5
43,38:16
43,45:7
44,2:3
44,4:9
44,5:1
44,6:8
44,7:2
44,10:8
44,16:5
44,18:5
44,19:2
44,22:14
44,23:3
44,24:14
44,25:8
44,26:14
44,27:14
44,28:5
44,29:3
44,30:14
44,31:7
44,32:5
44,33:1
44,34:3
44,36:3
44,37:1
44,38:16
44,39:12
44,40:12
44,45:7
45,2:10
45,4:2
45,10:1
45,25:1
45,38:9
45,46:1
45,48:7
45,49:8
46,2:11
46,4:1
46,38:8
46,47:5
46,48:6
46,49:9
46,50:9
47,2:16
47,4:4
47,10:5
47,25:5
47,38:3
47,48:1
47,49:14
47,50:14
48,2:17
48,4:5
48,10:6
48,25:6
48,38:2
48,46:6
48,47:1
48,49:15
48,50:15
48,51:1
48,52:2
48,53:11
48,56:9
49,2:2
49,4:10
49,10:9
49,25:9
49,38:17
49,46:9
49,47:14
49,48:15
49,51:14
49,52:17
49,53:4
49,54:15
49,55:15
49,56:6
50,2:2
50,4:10
50,10:9
50,25:9
50,38:17
50,47:14
50,48:15
50,51:14
50,52:17
50,53:4
50,54:15
50,55:15
50,56:6
51,2:16
51,4:4
51,10:5
51,25:5
51,38:3
51,48:1
51,49:14
51,50:14
51,52:3
52,4:7
52,10:8
52,48:2
52,49:17
52,50:17
52,53:13
53,4:6
53,10:5
53,48:11
53,49:4
53,50:4
53,54:11
54,4:5
54,10:6
54,49:15
54,50:15
54,56:9
55,4:5
55,10:6
55,49:15
55,50:15
55,56:9
55,57:15
56,4:4
56,10:3
56,48:9
56,49:6
56,50:6
56,55:9
56,57:6
57,4:10
57,10:9
58,4:10
58,10:9

<setup times backward>
1,4:6
1,6:5
1,8:12
1,10:5
1,12:5
1,16:2
1,18:2
1,22:11
1,24:11
1,27:11
1,28:2
1,30:11
1,32:2
2,1:6
2,3:3
2,4:12
2,5:2
2,6:11
2,7:5
2,8:18
2,9:12
2,10:11
2,11:15
2,12:11
2,13:3
2,14:9
2,15:15
2,16:8
2,17:6
2,18:8
2,19:5
2,20:2
2,21:18
2,22:17
2,23:6
2,24:17
2,26:17
2,27:17
2,28:8
2,30:17
2,31:10
2,32:8
2,33:2
2,35:3
2,36:6
2,37:2
2,39:15
2,40:15
2,41:3
2,42:3
2,43:3
2,44:3
2,45:10
2,46:11
2,47:16
2,48:17
2,49:2
2,50:2
2,51:16
3,1:3
3,4:9
3,6:8
3,7:2
3,8:15
3,9:9
3,10:8
3,11:12
3,12:8
3,14:6
3,15:12
3,16:5
3,17:3
3,18:5
3,19:2
3,23:3
3,24:14
3,25:8
3,28:5
3,32:5
4,8:6
4,11:3
4,15:3
4,21:6
4,22:5
4,24:5
4,26:5
4,27:5
4,30:5
4,38:7
4,39:3
4,40:3
4,47:4
4,48:5
4,51:4
4,52:7
4,54:5
4,55:5
5,1:4
5,3:1
5,4:10
5,6:9
5,7:3
5,8:16
5,9:10
5,10:9
5,11:13
5,12:9
5,13:1
5,14:7
5,15:13
5,16:6
5,17:4
5,18:6
5,19:3
5,21:16
5,22:15
5,23:4
5,24:15
5,25:9
5,26:15
5,27:15
5,28:6
5,30:15
5,31:8
5,32:6
5,35:1
5,44:1
6,4:1
6,8:7
6,9:1
6,11:4
6,15:4
6,21:7
6,22:6
6,26:6
6,27:6
6,30:6
7,1:1
7,4:7
7,6:6
7,8:13
7,9:7
7,10:6
7,11:10
7,12:6
7,14:4
7,15:10
7,16:3
7,17:1
7,18:3
7,21:13
7,22:12
7,23:1
7,24:12
7,25:6
7,26:12
7,27:12
7,28:3
7,30:12
7,31:5
7,32:3
7,36:1
7,38:14
7,39:10
7,40:10
8,38:1
9,8:6
9,22:5
9,24:5
9,27:5
9,30:5
10,4:1
10,8:7
10,9:1
10,11:4
10,15:4
10,21:7
10,22:6
10,24:6
10,26:6
10,27:6
10,30:6
10,38:8
10,39:4
10,40:4
10,47:5
10,48:6
10,51:5
10,52:8
10,54:6
10,55:6
11,8:3
11,22:2
11,24:2
11,27:2
11,30:2
12,4:1
12,8:7
12,9:1
12,11:4
12,15:4
12,22:6
12,24:6
12,27:6
12,30:6
13,1:3
13,4:9
13,6:8
13,7:2
13,8:15
13,9:9
13,10:8
13,11:12
13,12:8
13,14:6
13,15:12
13,16:5
13,18:5
13,19:2
13,22:14
13,23:3
13,24:14
13,27:14
13,28:5
13,30:14
13,32:5
14,4:3
14,6:2
14,8:9
14,9:3
14,10:2
14,11:6
14,12:2
14,15:6
14,22:8
14,24:8
14,27:8
14,30:8
15,8:3
15,22:2
15,24:2
15,27:2
15,30:2
16,4:4
16,6:3
16,8:10
16,9:4
16,10:3
16,11:7
16,12:3
16,14:1
16,15:7
16,21:10
16,22:9
16,24:9
16,25:3
16,26:9
16,27:9
16,30:9
17,4:6
17,6:5
17,8:12
17,9:6
17,10:5
17,11:9
17,12:5
17,14:3
17,15:9
17,16:2
17,18:2
17,22:11
17,24:11
17,27:11
17,28:2
17,30:11
17,32:2
18,4:4
18,6:3
18,8:10
18,9:4
18,10:3
18,11:7
18,12:3
18,14:1
18,15:7
18,21:10
18,22:9
18,24:9
18,25:3
18,26:9
18,27:9
18,30:9
19,1:1
19,4:7
19,6:6
19,8:13
19,9:7
19,10:6
19,11:10
19,12:6
19,14:4
19,15:10
19,16:3
19,17:1
19,18:3
19,21:13
19,22:12
19,24:12
19,25:6
19,26:12
19,27:12
19,28:3
19,30:12
19,32:3
20,1:4
20,3:1
20,4:10
20,6:9
20,7:3
20,8:16
20,9:10
20,10:9
20,11:13
20,12:9
20,13:1
20,14:7
20,15:13
20,16:6
20,17:4
20,18:6
20,19:3
20,22:15
20,23:4
20,24:15
20,27:15
20,28:6
20,30:15
20,32:6
20,35:1
22,8:1
22,21:1
23,4:6
23,6:5
23,8:12
23,9:6
23,10:5
23,11:9
23,12:5
23,14:3
23,15:9
23,16:2
23,18:2
23,21:12
23,22:11
23,24:11
23,25:5
23,26:11
23,27:11
23,28:2
23,30:11
23,32:2
24,8:1
24,21:1
25,4:1
25,8:7
25,9:1
25,11:4
25,15:4
25,21:7
25,22:6
25,24:6
25,26:6
25,27:6
25,30:6
25,39:4
25,40:4
25,47:5
25,48:6
25,51:5
26,8:1
26,21:1
27,8:1
27,21:1
28,4:4
28,6:3
28,8:10
28,9:4
28,10:3
28,11:7
28,12:3
28,14:1
28,15:7
28,21:10
28,22:9
28,24:9
28,25:3
28,26:9
28,27:9
28,30:9
28,31:2
28,38:11
28,39:7
28,40:7
29,1:6
29,3:3
29,4:12
29,5:2
29,6:11
29,7:5
29,8:18
29,9:12
29,10:11
29,11:15
29,12:11
29,13:3
29,14:9
29,15:15
29,16:8
29,17:6
29,18:8
29,19:5
29,20:2
29,21:18
29,22:17
29,23:6
29,24:17
29,25:11
29,26:17
29,27:17
29,28:8
29,30:17
29,32:8
29,33:2
29,35:3
29,44:3
30,8:1
30,21:1
31,4:2
31,6:1
31,8:8
31,9:2
31,10:1
31,11:5
31,12:1
31,15:5
31,21:8
31,22:7
31,24:7
31,25:1
31,26:7
31,27:7
31,30:7
32,4:4
32,6:3
32,8:10
32,9:4
32,10:3
32,11:7
32,12:3
32,14:1
32,15:7
32,21:10
32,22:9
32,24:9
32,25:3
32,26:9
32,27:9
32,30:9
32,31:2
32,38:11
32,39:7
32,40:7
33,1:4
33,3:1
33,4:10
33,6:9
33,7:3
33,8:16
33,9:10
33,10:9
33,11:13
33,12:9
33,13:1
33,14:7
33,15:13
33,16:6
33,17:4
33,18:6
33,19:3
33,21:16
33,22:15
33,23:4
33,24:15
33,25:9
33,26:15
33,27:15
33,28:6
33,30:15
33,31:8
33,32:6
33,36:4
33,38:17
33,39:13
33,40:13
33,41:1
33,42:1
33,44:1
34,1:6
34,3:3
34,4:12
34,5:2
34,6:11
34,7:5
34,8:18
34,9:12
34,10:11
34,11:15
34,12:11
34,13:3
34,14:9
34,15:15
34,16:8
34,17:6
34,18:8
34,19:5
34,20:2
34,21:18
34,22:17
34,23:6
34,24:17
34,25:11
34,26:17
34,27:17
34,28:8
34,30:17
34,31:10
34,32:8
34,33:2
34,35:3
34,44:3
35,1:3
35,4:9
35,6:8
35,7:2
35,8:15
35,9:9
35,10:8
35,11:12
35,12:8
35,14:6
35,15:12
35,16:5
35,17:3
35,18:5
35,19:2
35,21:15
35,22:14
35,23:3
35,24:14
35,25:8
35,26:14
35,27:14
35,28:5
35,30:14
35,31:7
35,32:5
35,36:3
35,38:16
35,39:12
35,40:12
36,4:6
36,6:5
36,8:12
36,9:6
36,10:5
36,11:9
36,12:5
36,14:3
36,15:9
36,16:2
36,18:2
36,21:12
36,22:11
36,24:11
36,25:5
36,26:11
36,27:11
36,28:2
36,30:11
36,31:4
36,32:2
37,1:4
37,3:1
37,4:10
37,6:9
37,7:3
37,8:16
37,9:10
37,10:9
37,11:13
37,12:9
37,13:1
37,14:7
37,15:13
37,16:6
37,17:4
37,18:6
37,19:3
37,21:16
37,22:15
37,23:4
37,24:15
37,25:9
37,26:15
37,27:15
37,28:6
37,30:15
37,31:8
37,32:6
37,35:1
37,36:4
37,38:17
37,44:1
39,8:3
39,21:3
39,22:2
39,24:2
39,26:2
39,27:2
39,30:2
39,38:4
40,8:3
40,21:3
40,22:2
40,24:2
40,26:2
40,27:2
40,30:2
40,38:4
41,1:3
41,4:9
41,6:8
41,7:2
41,8:15
41,9:9
41,10:8
41,11:12
41,12:8
41,14:6
41,15:12
41,16:5
41,17:3
41,18:5
41,19:2
41,21:15
41,22:14
41,23:3
41,24:14
41,25:8
41,26:14
41,27:14
41,28:5
41,30:14
41,31:7
41,32:5
41,36:3
41,38:16
41,39:12
41,40:12
42,1:3
42,4:9
42,6:8
42,7:2
42,8:15
42,9:9
42,10:8
42,11:12
42,12:8
42,14:6
42,15:12
42,16:5
42,17:3
42,18:5
42,19:2
42,21:15
42,22:14
42,23:3
42,24:14
42,25:8
42,26:14
42,27:14
42,28:5
42,30:14
42,31:7
42,32:5
42,36:3
42,38:16
42,39:12
42,40:12
43,1:3
43,4:9
43,6:8
43,7:2
43,8:15
43,9:9
43,10:8
43,11:12
43,12:8
43,14:6
43,15:12
43,16:5
43,17:3
43,18:5
43,19:2
43,21:15
43,22:14
43,23:3
43,24:14
43,25:8
43,26:14
43,27:14
43,28:5
43,30:14
43,31:7
43,32:5
43,36:3
43,38:16
43,39:12
43,40:12
44,1:3
44,4:9
44,6:8
44,7:2
44,8:15
44,9:9
44,10:8
44,11:12
44,12:8
44,14:6
44,15:12
44,16:5
44,17:3
44,18:5
44,19:2
44,21:15
44,22:14
44,23:3
44,24:14
44,25:8
44,26:14
44,27:14
44,28:5
44,30:14
44,31:7
44,32:5
44,36:3
44,38:16
44,39:12
44,40:12
45,4:2
45,6:1
45,8:8
45,9:2
45,10:1
45,11:5
45,12:1
45,15:5
45,21:8
45,22:7
45,24:7
45,25:1
45,26:7
45,27:7
45,30:7
45,38:9
45,39:5
45,40:5
46,4:1
46,8:7
46,9:1
46,11:4
46,15:4
46,21:7
46,22:6
46,24:6
46,26:6
46,27:6
46,30:6
46,38:8
46,39:4
46,40:4
46,48:6
47,8:2
47,21:2
47,22:1
47,24:1
47,26:1
47,27:1
47,30:1
47,38:3
47,48:1
48,8:1
48,21:1
48,38:2
48,52:2
49,1:4
49,3:1
49,4:10
49,6:9
49,7:3
49,8:16
49,9:10
49,10:9
49,11:13
49,12:9
49,13:1
49,14:7
49,15:13
49,16:6
49,17:4
49,18:6
49,19:3
49,21:16
49,22:15
49,23:4
49,24:15
49,25:9
49,26:15
49,27:15
49,28:6
49,30:15
49,31:8
49,32:6
49,35:1
49,36:4
49,38:17
49,39:13
49,40:13
49,41:1
49,42:1
49,43:1
49,44:1
49,45:8
49,46:9
49,47:14
49,48:15
49,51:14
49,52:17
49,53:4
49,54:15
49,55:15
49,56:6
50,1:4
50,3:1
50,4:10
50,6:9
50,7:3
50,8:16
50,9:10
50,10:9
50,11:13
50,12:9
50,13:1
50,14:7
50,15:13
50,16:6
50,17:4
50,18:6
50,19:3
50,21:16
50,22:15
50,23:4
50,24:15
50,25:9
50,26:15
50,27:15
50,28:6
50,30:15
50,31:8
50,32:6
50,35:1
50,36:4
50,38:17
50,39:13
50,40:13
50,41:1
50,42:1
50,43:1
50,44:1
50,45:8
50,46:9
50,47:14
50,48:15
50,51:14
50,52:17
50,53:4
50,54:15
50,55:15
50,56:6
51,8:2
51,21:2
51,22:1
51,24:1
51,26:1
51,27:1
51,30:1
51,38:3
51,48:1
53,4:6
53,6:5
53,8:12
53,9:6
53,10:5
53,11:9
53,12:5
53,14:3
53,15:9
53,16:2
53,18:2
53,21:12
53,22:11
53,24:11
53,25:5
53,26:11
53,27:11
53,28:2
53,30:11
53,31:4
53,32:2
53,38:13
53,39:9
53,40:9
53,45:4
53,46:5
53,47:10
53,48:11
53,51:10
53,52:13
54,8:1
54,21:1
54,38:2
54,52:2
55,8:1
55,21:1
55,38:2
55,52:2
56,4:4
56,6:3
56,8:10
56,9:4
56,10:3
56,11:7
56,12:3
56,14:1
56,15:7
56,21:10
56,22:9
56,24:9
56,25:3
56,26:9
56,27:9
56,30:9
56,31:2
56,38:11
56,39:7
56,40:7
56,45:2
56,46:3
56,47:8
56,48:9
56,51:8
56,52:11
56,54:9
56,55:9
57,1:4
57,3:1
57,4:10
57,6:9
57,7:3
57,8:16
57,9:10
57,10:9
57,11:13
57,12:9
57,13:1
57,14:7
57,15:13
57,16:6
57,17:4
57,18:6
57,19:3
57,21:16
57,22:15
57,23:4
57,24:15
57,25:9
57,26:15
57,27:15
57,28:6
57,30:15
57,31:8
57,32:6
57,35:1
57,36:4
57,38:17
57,39:13
57,40:13
57,41:1
57,42:1
57,43:1
57,44:1
57,45:8
57,46:9
57,47:14
57,48:15
57,51:14
57,52:17
57,53:4
57,54:15
57,55:15
57,56:6
58,1:4
58,3:1
58,4:10
58,6:9
58,7:3
58,8:16
58,9:10
58,10:9
58,11:13
58,12:9
58,13:1
58,14:7
58,15:13
58,16:6
58,17:4
58,18:6
58,19:3
58,21:16
58,22:15
58,23:4
58,24:15
58,25:9
58,26:15
58,27:15
58,28:6
58,30:15
58,31:8
58,32:6
58,35:1
58,36:4
58,38:17
58,39:13
58,40:13
58,41:1
58,42:1
58,43:1
58,44:1
58,45:8
58,46:9
58,47:14
58,48:15
58,51:14
58,52:17
58,53:4
58,54:15
58,55:15
58,56:6

<end>

<optimal SALBP-1 value>
31


<rand seed>
467321153

